Minimize
  - 38 y_0 - 39 y_1 - 38 y_2 - 40 y_3 - 40 y_4 - 24 y_5 - 6 y_6 - 18 y_7
   - 36 y_8 + 23 x_0_1 + 23 x_0_2 + 65 x_0_5 + 65 x_0_6 + 40 x_0_7
   + 32 x_0_8 + 76 x_0_9 + 49 x_1_3 + 42 x_1_4 + 51 x_1_5 + 68 x_1_6
   + 54 x_1_8 + 78 x_1_9 + 48 x_2_3 + 66 x_2_6 + 40 x_2_7 + 54 x_2_8
   + 76 x_2_9 + 8 x_3_4 + 49 x_3_7 + 79 x_4_5 + 47 x_4_7 + 17 x_4_8
   + 80 x_4_9 + 47 x_5_6 + 81 x_5_8 + 26 x_6_7 + 60 x_6_8 + 12 x_6_9
   + 37 x_7_9 + 37 x_9_7 + 37 x_9_7 + 37 x_9_7 + 37 x_9_7 + 37 x_9_7
   + 37 x_9_7 + 37 x_9_7 + 37 x_9_7 + 37 x_9_7 + 37 x_9_7 + 37 x_9_7
   + 37 x_9_7 + 37 x_9_7 + 37 x_9_7 + 37 x_9_7 + 37 x_9_7 + 37 x_9_7
   + 37 x_9_7 + 37 x_9_7 + 37 x_9_7 + 37 x_9_7 + 37 x_9_7 + 37 x_9_7
   + 37 x_9_7 + 37 x_9_7 + 37 x_9_7 + 37 x_9_7 + 37 x_9_7 + 37 x_9_7
   + 37 x_9_7 + 37 x_9_7 + 37 x_9_7 + 37 x_9_7 + 37 x_9_7 + 37 x_9_7
   + 37 x_9_7 + 37 x_9_7 + 37 x_9_7 + 37 x_9_7 + 37 x_9_7 + 37 x_9_7
   + 37 x_9_7 + 37 x_9_7 + 37 x_9_7 + 37 x_9_7 + 37 x_9_7 + 37 x_9_7
   + 37 x_9_7 + 37 x_9_7 + 37 x_9_7 + 37 x_9_7 + 37 x_9_7 + 37 x_9_7
   + 37 x_9_7 + 37 x_9_7 + 37 x_9_7 + 37 x_9_7 + 37 x_9_7 + 37 x_9_7
   + 37 x_9_7 + 37 x_9_7 + 37 x_9_7 + 37 x_9_7 + 37 x_9_7 + 37 x_9_7
   + 37 x_9_7 + 37 x_9_7 + 37 x_9_7 + 37 x_9_7 + 37 x_9_7 + 37 x_9_7
   + 37 x_9_7 + 37 x_9_7 + 37 x_9_7 + 37 x_9_7 + 37 x_9_7 + 37 x_9_7
   + 37 x_9_7 + 37 x_9_7 + 37 x_9_7 + 37 x_9_7 + 37 x_9_7 + 37 x_9_7
   + 37 x_9_7 + 37 x_9_7 + 37 x_9_7 + 37 x_9_7 + 37 x_9_7 + 37 x_9_7
   + 37 x_9_7 + 37 x_9_7 + 37 x_9_7 + 37 x_9_7 + 37 x_9_7 + 37 x_9_7
   + 37 x_9_7 + 37 x_9_7 + 37 x_9_7 + 37 x_9_7 + 37 x_9_7 + 37 x_9_7
   + 37 x_9_7 + 37 x_9_7 + 37 x_9_7 + 37 x_9_7 + 37 x_9_7 + 37 x_9_7
   + 37 x_9_7 + 37 x_9_7 + 37 x_9_7 + 37 x_9_7 + 37 x_9_7 + 37 x_9_7
   + 37 x_9_7 + 37 x_9_7 + 37 x_9_7 + 37 x_9_7 + 37 x_9_7 + 37 x_9_7
   + 37 x_9_7 + 37 x_9_7 + 37 x_9_7 + 37 x_9_7 + 37 x_9_7 + 37 x_9_7
   + 37 x_9_7 + 37 x_9_7 + 37 x_9_7 + 37 x_9_7 + 37 x_9_7 + 37 x_9_7
   + 37 x_9_7 + 37 x_9_7 + 37 x_9_7 + 37 x_9_7 + 37 x_9_7 + 37 x_9_7
   + 37 x_9_7 + 37 x_9_7 + 37 x_9_7 + 37 x_9_7 + 37 x_9_7 + 37 x_9_7
   + 37 x_9_7 + 37 x_9_7 + 37 x_9_7 + 37 x_9_7 + 37 x_9_7 + 37 x_9_7
   + 37 x_9_7 + 37 x_9_7 + 37 x_9_7 + 37 x_9_7 + 37 x_9_7 + 37 x_9_7
   + 37 x_9_7 + 37 x_9_7 + 37 x_9_7 + 37 x_9_7 + 37 x_9_7 + 37 x_9_7
   + 37 x_9_7 + 37 x_9_7 + 37 x_9_7 + 37 x_9_7 + 37 x_9_7 + 37 x_9_7
   + 37 x_9_7 + 37 x_9_7 + 37 x_9_7 + 37 x_9_7 + 37 x_9_7 + 37 x_9_7
   + 37 x_9_7 + 37 x_9_7 + 37 x_9_7 + 37 x_9_7 + 37 x_9_7 + 37 x_9_7
   + 37 x_9_7 + 37 x_9_7 + 37 x_9_7 + 37 x_9_7 + 37 x_9_7 + 37 x_9_7
   + 37 x_9_7 + 37 x_9_7 + 37 x_9_7 + 37 x_9_7 + 37 x_9_7 + 37 x_9_7
   + 37 x_9_7 + 37 x_9_7 + 37 x_9_7 + 37 x_9_7 + 37 x_9_7 + 37 x_9_7
   + 37 x_9_7 + 37 x_9_7 + 37 x_9_7 + 37 x_9_7 + 37 x_9_7 + 37 x_9_7
   + 37 x_9_7 + 37 x_9_7 + 37 x_9_7 + 37 x_9_7 + 37 x_9_7 + 37 x_9_7
   + 37 x_9_7 + 37 x_9_7 + 37 x_9_7 + 37 x_9_7 + 37 x_9_7 + 37 x_9_7
   + 37 x_9_7 + 37 x_9_7 + 37 x_9_7 + 37 x_9_7 + 37 x_9_7 + 37 x_9_7
   + 37 x_9_7 + 37 x_9_7 + 37 x_9_7 + 37 x_9_7 + 37 x_9_7 + 37 x_9_7
   + 37 x_9_7 + 37 x_9_7 + 37 x_9_7 + 37 x_9_7 + 37 x_9_7 + 37 x_9_7
   + 37 x_9_7 + 37 x_9_7 + 37 x_9_7 + 37 x_9_7 + 37 x_9_7 + 37 x_9_7
   + 37 x_9_7 + 37 x_9_7 + 37 x_9_7 + 37 x_9_7 + 37 x_9_7 + 37 x_9_7
   + 37 x_9_7 + 37 x_9_7 + 37 x_9_7 + 37 x_9_7 + 37 x_9_7 + 37 x_9_7
   + 37 x_9_7 + 37 x_9_7 + 37 x_9_7 + 37 x_9_7 + 37 x_9_7 + 37 x_9_7
   + 37 x_9_7 + 37 x_9_7 + 37 x_9_7 + 37 x_9_7 + 37 x_9_7 + 37 x_9_7
   + 37 x_9_7 + 37 x_9_7 + 37 x_9_7 + 37 x_9_7 + 37 x_9_7 + 37 x_9_7
   + 37 x_9_7 + 37 x_9_7 + 37 x_9_7 + 37 x_9_7 + 37 x_9_7 + 37 x_9_7
   + 37 x_9_7 + 37 x_9_7 + 37 x_9_7 + 37 x_9_7 + 37 x_9_7 + 37 x_9_7
   + 37 x_9_7 + 37 x_9_7 + 37 x_9_7 + 37 x_9_7 + 37 x_9_7 + 37 x_9_7
   + 37 x_9_7 + 279 Constant
Subject To
 c_0: y_2 = 1
 c_1_0: y_0 >= 1
 c_1_1: y_1 + y_2 >= 1
 c_1_2: y_1 + y_2 >= 1
 c_1_3: y_3 + y_4 >= 1
 c_1_4: y_3 + y_4 >= 1
 c_1_5: y_5 >= 1
 c_1_6: y_6 >= 1
 c_1_7: y_7 >= 1
 c_1_8: y_8 >= 1
 c_1_9: y_9 >= 1
 c_2_0: - 2 y_0 + x_0_1 + x_0_2 + x_0_5 + x_0_6 + x_0_7 + x_0_8 + x_0_9
   = 0
 c_2_1: - 2 y_1 + x_0_1 + x_1_3 + x_1_4 + x_1_5 + x_1_6 + x_1_8 + x_1_9
   = 0
 c_2_2: - 2 y_2 + x_0_2 + x_2_3 + x_2_6 + x_2_7 + x_2_8 + x_2_9 = 0
 c_2_3: - 2 y_3 + x_1_3 + x_2_3 + x_3_4 + x_3_7 = 0
 c_2_4: - 2 y_4 + x_1_4 + x_3_4 + x_4_5 + x_4_7 + x_4_8 + x_4_9 = 0
 c_2_5: - 2 y_5 + x_0_5 + x_1_5 + x_4_5 + x_5_6 + x_5_8 = 0
 c_2_6: - 2 y_6 + x_0_6 + x_1_6 + x_2_6 + x_5_6 + x_6_7 + x_6_8 + x_6_9
   = 0
 c_2_7: - 2 y_7 + x_0_7 + x_2_7 + x_3_7 + x_4_7 + x_6_7 + 289 x_9_7 = 0
 c_2_8: - 2 y_8 + x_0_8 + x_1_8 + x_2_8 + x_4_8 + x_5_8 + x_6_8 = 0
 c_2_9: - 2 y_9 + x_0_9 + x_1_9 + x_2_9 + x_4_9 + x_6_9 + 289 x_9_7 = 0
Bounds
 Constant = 1
Binaries
 y_0 y_1 y_2 y_3 y_4 y_5 y_6 y_7 y_8 y_9 x_0_1 x_0_2 x_0_5 x_0_6 x_0_7
 x_0_8 x_0_9 x_1_3 x_1_4 x_1_5 x_1_6 x_1_8 x_1_9 x_2_3 x_2_6 x_2_7 x_2_8
 x_2_9 x_3_4 x_3_7 x_4_5 x_4_7 x_4_8 x_4_9 x_5_6 x_5_8 x_6_7 x_6_8 x_6_9
 x_7_9 x_9_7 x_9_7 x_9_7 x_9_7 x_9_7 x_9_7 x_9_7 x_9_7 x_9_7 x_9_7 x_9_7
 x_9_7 x_9_7 x_9_7 x_9_7 x_9_7 x_9_7 x_9_7 x_9_7 x_9_7 x_9_7 x_9_7 x_9_7
 x_9_7 x_9_7 x_9_7 x_9_7 x_9_7 x_9_7 x_9_7 x_9_7 x_9_7 x_9_7 x_9_7 x_9_7
 x_9_7 x_9_7 x_9_7 x_9_7 x_9_7 x_9_7 x_9_7 x_9_7 x_9_7 x_9_7 x_9_7 x_9_7
 x_9_7 x_9_7 x_9_7 x_9_7 x_9_7 x_9_7 x_9_7 x_9_7 x_9_7 x_9_7 x_9_7 x_9_7
 x_9_7 x_9_7 x_9_7 x_9_7 x_9_7 x_9_7 x_9_7 x_9_7 x_9_7 x_9_7 x_9_7 x_9_7
 x_9_7 x_9_7 x_9_7 x_9_7 x_9_7 x_9_7 x_9_7 x_9_7 x_9_7 x_9_7 x_9_7 x_9_7
 x_9_7 x_9_7 x_9_7 x_9_7 x_9_7 x_9_7 x_9_7 x_9_7 x_9_7 x_9_7 x_9_7 x_9_7
 x_9_7 x_9_7 x_9_7 x_9_7 x_9_7 x_9_7 x_9_7 x_9_7 x_9_7 x_9_7 x_9_7 x_9_7
 x_9_7 x_9_7 x_9_7 x_9_7 x_9_7 x_9_7 x_9_7 x_9_7 x_9_7 x_9_7 x_9_7 x_9_7
 x_9_7 x_9_7 x_9_7 x_9_7 x_9_7 x_9_7 x_9_7 x_9_7 x_9_7 x_9_7 x_9_7 x_9_7
 x_9_7 x_9_7 x_9_7 x_9_7 x_9_7 x_9_7 x_9_7 x_9_7 x_9_7 x_9_7 x_9_7 x_9_7
 x_9_7 x_9_7 x_9_7 x_9_7 x_9_7 x_9_7 x_9_7 x_9_7 x_9_7 x_9_7 x_9_7 x_9_7
 x_9_7 x_9_7 x_9_7 x_9_7 x_9_7 x_9_7 x_9_7 x_9_7 x_9_7 x_9_7 x_9_7 x_9_7
 x_9_7 x_9_7 x_9_7 x_9_7 x_9_7 x_9_7 x_9_7 x_9_7 x_9_7 x_9_7 x_9_7 x_9_7
 x_9_7 x_9_7 x_9_7 x_9_7 x_9_7 x_9_7 x_9_7 x_9_7 x_9_7 x_9_7 x_9_7 x_9_7
 x_9_7 x_9_7 x_9_7 x_9_7 x_9_7 x_9_7 x_9_7 x_9_7 x_9_7 x_9_7 x_9_7 x_9_7
 x_9_7 x_9_7 x_9_7 x_9_7 x_9_7 x_9_7 x_9_7 x_9_7 x_9_7 x_9_7 x_9_7 x_9_7
 x_9_7 x_9_7 x_9_7 x_9_7 x_9_7 x_9_7 x_9_7 x_9_7 x_9_7 x_9_7 x_9_7 x_9_7
 x_9_7 x_9_7 x_9_7 x_9_7 x_9_7 x_9_7 x_9_7 x_9_7 x_9_7 x_9_7 x_9_7 x_9_7
 x_9_7 x_9_7 x_9_7 x_9_7 x_9_7 x_9_7 x_9_7 x_9_7 x_9_7 x_9_7 x_9_7 x_9_7
 x_9_7 x_9_7 x_9_7 x_9_7 x_9_7 x_9_7 x_9_7 x_9_7 x_9_7 x_9_7 x_9_7 x_9_7
 x_9_7 x_9_7 x_9_7 x_9_7 x_9_7 x_9_7 x_9_7 x_9_7 x_9_7 x_9_7 x_9_7 x_9_7
 x_9_7 x_9_7 x_9_7 x_9_7 x_9_7 x_9_7 x_9_7 x_9_7 x_9_7 x_9_7 x_9_7 x_9_7
 x_9_7
End
